VALOR = 150;
MAXV = 200;
MAXN = 250;
MCAP = 1000;
CA = 5;
MinD = 3;
MaxD = 6;
MinB = 100000;
TiposVeg = {VEG1, VEG2};
TiposNVeg = {ANV1, ANV2, ANV3};
% PreciosVeg = 
%     [|
%     110, 130, 110, 120, 100, 90, 95, 110, 100, 130, 100, 120 |
%     120, 130, 140, 110, 120, 100, 120, 130, 110, 140, 110, 100
%     |];
% PreciosNVeg = 
%     [|
%     130, 110, 130, 120, 150, 140, 130, 150, 130, 140, 120, 110 |
%     110, 90, 100, 120, 110, 80, 85, 100, 110, 100, 90, 120 |
%     115, 115, 95, 125, 105, 135, 130, 125, 115, 135, 100, 125
%     |];
    
PreciosVeg = 
    [|
    110, 120 |
    130, 130 |
    110, 140 |
    120, 110 |
    100, 120 |
    90, 100 |
    95, 120 |
    110, 130 |
    100, 110 |
    130, 140 |
    100, 110 |
    120, 100
    |];
    
PreciosNVeg = 
    [|
    130, 110, 115 |
    110, 90, 115 |
    130, 100, 95 |
    120, 120, 125 |
    150, 110, 105 |
    140, 80, 135 |
    130, 85, 130 |
    150, 100, 125 |
    130, 100, 115 |
    140, 100, 135 |
    120, 90, 100 |
    110, 120, 125 
    |];
    
durezaVeg = [8.8, 6.1];
durezaNVeg = [2.0, 4.2, 5.0];
cantidadVeg = [500, 500];
cantidadNVeg = [500, 500, 500];